(set-logic QF_FPABV)
(declare-fun b39 () (_ FP 8 24))
(declare-fun b46 () (_ FP 8 24))
(declare-fun b44 () (_ FP 11 53))
(declare-fun b55 () (_ FP 11 53))
(declare-fun b106 () (_ FP 11 53))
(declare-fun b189 () (_ FP 8 24))
(declare-fun b116 () (_ FP 8 24))
(declare-fun b174 () (_ FP 8 24))
(declare-fun b179 () (_ FP 8 24))
(declare-fun b41 () (_ FP 8 24))
(define-fun .3 () RoundingMode roundNearestTiesToEven)
(define-fun .9 () (_ FP 8 24) b39)
(define-fun .10 () (_ FP 8 24) b41)
(define-fun .11 () (_ FP 8 24) (/ .3 .9 .10))
(define-fun .12 () (_ FP 11 53) ((_ asFloat 11 53) .3 .11))
(define-fun .13 () (_ FP 11 53) b55)
(define-fun .14 () (_ FP 11 53) (* .3 .12 .13))
(define-fun .15 () (_ FP 8 24) (* .3 .11 .11))
(define-fun .16 () (_ FP 8 24) (- .15))
(define-fun .17 () (_ FP 8 24) (+ .3 .9 .16))
(define-fun .18 () (_ FP 11 53) ((_ asFloat 11 53) .3 .17))
(define-fun .19 () (_ FP 11 53) (/ .3 .18 .14))
(define-fun .20 () (_ FP 8 24) ((_ asFloat 8 24) .3 .19))
(define-fun .21 () (_ FP 8 24) (+ .3 .11 .20))
(define-fun .22 () (_ FP 8 24) (* .3 .21 .21))
(define-fun .23 () (_ FP 8 24) (- .22))
(define-fun .24 () (_ FP 8 24) (+ .3 .9 .23))
(define-fun .25 () (_ FP 11 53) ((_ asFloat 11 53) .3 .24))
(define-fun .26 () (_ FP 8 24) ((_ asFloat 8 24) .3 .25))
(define-fun .27 () (_ FP 8 24) b189)
(define-fun .28 () Bool (= .26 .27))
(define-fun .29 () Bool (not .28))
(define-fun .30 () (_ FP 11 53) ((_ asFloat 11 53) .3 .21))
(define-fun .31 () (_ FP 11 53) (* .3 .13 .30))
(define-fun .32 () (_ FP 11 53) (/ .3 .25 .31))
(define-fun .33 () (_ FP 8 24) ((_ asFloat 8 24) .3 .32))
(define-fun .34 () (_ FP 8 24) (+ .3 .21 .33))
(define-fun .35 () (_ FP 8 24) (* .3 .34 .34))
(define-fun .36 () (_ FP 8 24) (- .35))
(define-fun .37 () (_ FP 8 24) (+ .3 .9 .36))
(define-fun .38 () (_ FP 11 53) ((_ asFloat 11 53) .3 .37))
(define-fun .39 () (_ FP 8 24) ((_ asFloat 8 24) .3 .38))
(define-fun .40 () (_ FP 8 24) b179)
(define-fun .41 () Bool (= .39 .40))
(define-fun .42 () Bool (not .41))
(define-fun .43 () (_ FP 11 53) b106)
(define-fun .44 () (_ FP 8 24) ((_ asFloat 8 24) .3 .43))
(define-fun .45 () (_ FP 8 24) b174)
(define-fun .46 () Bool (= .44 .45))
(define-fun .47 () Bool (not .46))
(define-fun .48 () (_ FP 8 24) b46)
(define-fun .49 () Bool (== .9 .48))
(define-fun .50 () Bool (not .49))
(define-fun .51 () Bool (<= .48 .9))
(define-fun .52 () Bool (and .50 .51))
(define-fun .53 () Bool (<= .48 .44))
(define-fun .54 () Bool (not .53))
(define-fun .55 () Bool (and .52 .54))
(define-fun .56 () (_ FP 8 24) (- .44))
(define-fun .57 () Bool (= .45 .56))
(define-fun .58 () Bool (and .55 .57))
(define-fun .59 () Bool (and .47 .58))
(define-fun .60 () Bool (<= .48 .39))
(define-fun .61 () Bool (not .60))
(define-fun .62 () Bool (and .59 .61))
(define-fun .63 () (_ FP 8 24) (- .39))
(define-fun .64 () Bool (= .40 .63))
(define-fun .65 () Bool (and .62 .64))
(define-fun .66 () Bool (and .42 .65))
(define-fun .67 () (_ FP 11 53) ((_ asFloat 11 53) .3 .27))
(define-fun .68 () (_ FP 11 53) b44)
(define-fun .69 () Bool (<= .67 .68))
(define-fun .70 () Bool (not .69))
(define-fun .71 () Bool (and .66 .70))
(define-fun .72 () Bool (<= .48 .26))
(define-fun .73 () Bool (not .72))
(define-fun .74 () Bool (and .71 .73))
(define-fun .75 () (_ FP 8 24) (- .26))
(define-fun .76 () Bool (= .27 .75))
(define-fun .77 () Bool (and .74 .76))
(define-fun .78 () (_ FP 8 24) b116)
(define-fun .79 () Bool (<= .45 .78))
(define-fun .80 () Bool (not .79))
(define-fun .81 () Bool (and .77 .80))
(define-fun .82 () Bool (and .29 .81))
(assert .82)
(check-sat)
